db/data/1851424221508013453362793282547336.z3.out
-------------------
2500.306610641
